language ESSENCE' 1.0
letting AssignmentMatrix be [[0, 0, 0, 0, 0, 0, 0, 0, 0, 0, 0, 1, 1, 1, 1, 1, 1, 1, 1], 
[0, 0, 0, 0, 0, 0, 0, 1, 1, 1, 1, 0, 0, 0, 0, 0, 0, 1, 1], 
[0, 0, 0, 0, 0, 0, 0, 0, 0, 0, 0, 0, 0, 0, 0, 0, 0, 0, 0], 
[0, 0, 0, 0, 1, 1, 1, 0, 0, 0, 0, 0, 0, 0, 0, 0, 0, 0, 0], 
[0, 0, 1, 1, 0, 0, 0, 0, 0, 0, 0, 0, 0, 0, 0, 0, 0, 0, 0]]
letting CPU be [1, 1, 4, 4, 4, 4, 4, 2, 2, 2, 2, 2, 2, 2, 2, 2, 2, 4, 4]
letting Memory be [1700, 1700, 7500, 7500, 7500, 7500, 7500, 3750, 3750, 3750, 3750, 3750, 3750, 3750, 3750, 3750, 3750, 15000, 15000]
letting Price be [0, 0, 210, 210, 210, 210, 210, 116, 116, 116, 116, 116, 116, 116, 116, 116, 116, 350, 350]
letting Storage be [1000, 1000, 2000, 2000, 2000, 2000, 2000, 2000, 2000, 2000, 2000, 2000, 2000, 2000, 2000, 2000, 2000, 4000, 4000]
letting VMType be [1, 1, 341, 341, 341, 341, 341, 433, 433, 433, 433, 433, 433, 433, 433, 433, 433, 316, 316]
